p cnf 87 297
-7 1 0
-7 2 0
7 -1 -2 0
-8 1 0
-8 3 0
8 -1 -3 0
-9 1 0
-9 4 0
9 -1 -4 0
-10 1 0
-10 5 0
10 -1 -5 0
-11 1 0
-11 6 0
11 -1 -6 0
-12 2 0
-12 3 0
12 -2 -3 0
-13 2 0
-13 4 0
13 -2 -4 0
-14 2 0
-14 5 0
14 -2 -5 0
-15 2 0
-15 6 0
15 -2 -6 0
-16 3 0
-16 4 0
16 -3 -4 0
-17 3 0
-17 5 0
17 -3 -5 0
-18 3 0
-18 6 0
18 -3 -6 0
-19 4 0
-19 5 0
19 -4 -5 0
-20 4 0
-20 6 0
20 -4 -6 0
-21 5 0
-21 6 0
21 -5 -6 0
-22 0
1 -22 23 0
-1 -22 -23 0
1 -23 22 0
-1 22 23 0
2 -23 24 0
-2 -23 -24 0
2 -24 23 0
-2 23 24 0
3 -24 25 0
-3 -24 -25 0
3 -25 24 0
-3 24 25 0
4 -25 26 0
-4 -25 -26 0
4 -26 25 0
-4 25 26 0
7 -26 27 0
-7 -26 -27 0
7 -27 26 0
-7 26 27 0
8 -27 28 0
-8 -27 -28 0
8 -28 27 0
-8 27 28 0
9 -28 29 0
-9 -28 -29 0
9 -29 28 0
-9 28 29 0
10 -29 30 0
-10 -29 -30 0
10 -30 29 0
-10 29 30 0
11 -30 31 0
-11 -30 -31 0
11 -31 30 0
-11 30 31 0
16 -31 32 0
-16 -31 -32 0
16 -32 31 0
-16 31 32 0
19 -32 33 0
-19 -32 -33 0
19 -33 32 0
-19 32 33 0
21 -33 34 0
-21 -33 -34 0
21 -34 33 0
-21 33 34 0
-34 0
35 0
1 -35 36 0
-1 -35 -36 0
1 -36 35 0
-1 35 36 0
2 -36 37 0
-2 -36 -37 0
2 -37 36 0
-2 36 37 0
6 -37 38 0
-6 -37 -38 0
6 -38 37 0
-6 37 38 0
7 -38 39 0
-7 -38 -39 0
7 -39 38 0
-7 38 39 0
11 -39 40 0
-11 -39 -40 0
11 -40 39 0
-11 39 40 0
16 -40 41 0
-16 -40 -41 0
16 -41 40 0
-16 40 41 0
21 -41 42 0
-21 -41 -42 0
21 -42 41 0
-21 41 42 0
-42 0
43 0
1 -43 44 0
-1 -43 -44 0
1 -44 43 0
-1 43 44 0
2 -44 45 0
-2 -44 -45 0
2 -45 44 0
-2 44 45 0
5 -45 46 0
-5 -45 -46 0
5 -46 45 0
-5 45 46 0
8 -46 47 0
-8 -46 -47 0
8 -47 46 0
-8 46 47 0
12 -47 48 0
-12 -47 -48 0
12 -48 47 0
-12 47 48 0
16 -48 49 0
-16 -48 -49 0
16 -49 48 0
-16 48 49 0
17 -49 50 0
-17 -49 -50 0
17 -50 49 0
-17 49 50 0
19 -50 51 0
-19 -50 -51 0
19 -51 50 0
-19 50 51 0
20 -51 52 0
-20 -51 -52 0
20 -52 51 0
-20 51 52 0
21 -52 53 0
-21 -52 -53 0
21 -53 52 0
-21 52 53 0
-53 0
54 0
1 -54 55 0
-1 -54 -55 0
1 -55 54 0
-1 54 55 0
2 -55 56 0
-2 -55 -56 0
2 -56 55 0
-2 55 56 0
3 -56 57 0
-3 -56 -57 0
3 -57 56 0
-3 56 57 0
4 -57 58 0
-4 -57 -58 0
4 -58 57 0
-4 57 58 0
5 -58 59 0
-5 -58 -59 0
5 -59 58 0
-5 58 59 0
6 -59 60 0
-6 -59 -60 0
6 -60 59 0
-6 59 60 0
7 -60 61 0
-7 -60 -61 0
7 -61 60 0
-7 60 61 0
9 -61 62 0
-9 -61 -62 0
9 -62 61 0
-9 61 62 0
14 -62 63 0
-14 -62 -63 0
14 -63 62 0
-14 62 63 0
16 -63 64 0
-16 -63 -64 0
16 -64 63 0
-16 63 64 0
21 -64 65 0
-21 -64 -65 0
21 -65 64 0
-21 64 65 0
-65 0
-66 0
3 -66 67 0
-3 -66 -67 0
3 -67 66 0
-3 66 67 0
5 -67 68 0
-5 -67 -68 0
5 -68 67 0
-5 67 68 0
6 -68 69 0
-6 -68 -69 0
6 -69 68 0
-6 68 69 0
12 -69 70 0
-12 -69 -70 0
12 -70 69 0
-12 69 70 0
14 -70 71 0
-14 -70 -71 0
14 -71 70 0
-14 70 71 0
17 -71 72 0
-17 -71 -72 0
17 -72 71 0
-17 71 72 0
19 -72 73 0
-19 -72 -73 0
19 -73 72 0
-19 72 73 0
20 -73 74 0
-20 -73 -74 0
20 -74 73 0
-20 73 74 0
21 -74 75 0
-21 -74 -75 0
21 -75 74 0
-21 74 75 0
-75 0
-76 0
2 -76 77 0
-2 -76 -77 0
2 -77 76 0
-2 76 77 0
3 -77 78 0
-3 -77 -78 0
3 -78 77 0
-3 77 78 0
4 -78 79 0
-4 -78 -79 0
4 -79 78 0
-4 78 79 0
5 -79 80 0
-5 -79 -80 0
5 -80 79 0
-5 79 80 0
6 -80 81 0
-6 -80 -81 0
6 -81 80 0
-6 80 81 0
12 -81 82 0
-12 -81 -82 0
12 -82 81 0
-12 81 82 0
13 -82 83 0
-13 -82 -83 0
13 -83 82 0
-13 82 83 0
14 -83 84 0
-14 -83 -84 0
14 -84 83 0
-14 83 84 0
16 -84 85 0
-16 -84 -85 0
16 -85 84 0
-16 84 85 0
17 -85 86 0
-17 -85 -86 0
17 -86 85 0
-17 85 86 0
21 -86 87 0
-21 -86 -87 0
21 -87 86 0
-21 86 87 0
-87 0
